15	4	1.5
6 2 3 2 5 7 2 3 7 11 2 1 2 8 16 4 6 8 10 2 1 5 6 7 2 1 5 9 1 3 4 7 11 2 4 1 5 7 2 1 6 9 2 4 3 5 6 1 1 5 9
5 1 3 5 7 10 2 1 3 6 8 2 3 5 10 1 4 3 6 8 2 4 1 5 9 2 3 6 12 2 1 2 8 14 2 2 6 7 
8 2 4 1 7 14 3 8 9 16 2 3 3 5 9 2 1 7 12 2 4 2 5 7 1 4 5 8 2 1 2 8 13 4 5 8 10 2 1 2 6 10 2 3 5 6 1 4 5 6 8 2 1 4 8 16 2 1 6 7 2 4 5 9 10 3 3 6 10 
7 2 4 4 5 6 1 2 5 8 2 4 3 7 12 3 2 9 11 2 1 1 8 15 4 4 8 10 1 4 4 8 12 2 1 1 8 12 2 1 6 9 2 4 2 5 10 2 1 6 10 1 4 4 6 12 
6 2 3 3 7 8 1 3 5 10 2 4 4 6 8 2 2 7 9 2 4 6 7 11 3 7 9 18 1 3 4 8 9 2 3 3 5 10 2 2 7 14 2 1 6 8 11 2 2 6 11 
9 1 4 1 6 8 2 4 2 5 6 2 4 6 12 1 3 3 8 9 2 3 5 7 9 1 2 5 9 2 4 2 6 10 2 3 7 12 1 4 7 8 11 2 1 4 8 15 2 5 6 10 2 1 6 8 10 4 5 8 11 2 4 3 5 7 1 4 5 7 
5 1 3 5 8 9 2 4 5 7 8 3 4 9 17 2 1 5 6 10 2 1 5 8 2 4 2 6 9 2 2 7 11 1 3 6 7 8 
8 2 3 2 7 10 1 2 5 7 1 3 3 8 11 2 4 4 7 10 3 2 9 11 2 4 2 5 7 1 2 5 8 1 3 3 7 8 1 4 5 8 14 2 4 8 9 14 3 5 6 9 2 1 1 6 8 2 2 5 9 
9 2 3 1 5 8 2 2 7 13 1 4 1 8 15 2 4 2 5 7 2 2 6 7 2 1 1 6 11 2 2 5 8 1 4 2 6 10 2 1 4 8 16 4 2 9 16 2 1 2 8 11 4 4 8 11 2 1 4 8 13 2 4 6 11 1 3 3 7 13 
9 2 1 6 8 10 2 3 6 8 2 1 4 8 12 4 2 8 11 2 1 7 8 14 4 3 9 16 2 4 2 9 17 3 3 6 8 2 1 5 6 12 2 4 5 9 1 3 3 8 15 1 3 6 7 14 1 4 3 6 8 2 4 1 5 6 2 4 6 7 
7 2 1 4 8 10 2 2 6 11 2 1 4 8 12 4 1 8 14 2 1 5 6 9 2 3 5 8 1 3 1 7 14 1 4 1 6 10 1 3 2 8 13 2 4 4 9 11 3 2 6 8 
6 1 4 3 8 10 1 3 6 7 12 2 4 6 7 13 3 7 9 10 2 1 2 6 10 2 3 5 9 1 3 3 8 10 2 1 1 8 14 4 7 8 9 
7 1 4 7 8 11 2 4 1 9 14 3 1 6 10 2 1 2 8 13 4 7 8 16 2 4 1 6 12 2 4 7 10 2 4 5 6 11 2 2 7 11 2 1 6 8 16 2 2 6 10 2 3 6 7 12 1 4 5 9 
7 2 1 3 6 11 2 1 5 7 2 3 5 7 14 1 2 5 8 2 1 6 8 15 4 5 8 16 2 1 3 8 16 2 1 6 12 2 4 3 5 10 1 1 5 9 2 4 1 6 8 2 5 7 10 1 4 4 6 10 
7 1 3 7 8 13 2 1 3 8 10 4 3 9 17 2 4 4 9 13 3 1 6 12 1 3 2 7 13 2 4 1 5 6 2 4 6 8 2 1 6 8 9 2 3 6 10 2 1 1 6 10 2 2 5 10 
